SCIP Status        : problem creation / modification
Total Time         :       0.03
  reading          :       0.03
Original Problem   :
  Problem name     : main4.zpl
  Variables        : 2745 (2745 binary, 0 integer, 0 implicit integer, 0 continuous)
  Constraints      : 0 initial, 2805 maximal
  Objective        : minimize, 2745 non-zeros (abs.min = 0.0017, abs.max = 5700)
